 vasp.6.3.0 20Jan22 (build May 24 2022 17:11:44) complex
 executed on              LinuxNV date 2024.05.26  10:59:43

 INCAR:
   SYSTEM = PSC
   ISTART = 0
   ICHARG = 2
   PREC = Normal
   ENCUT = 500
   GGA_COMPAT = F
   NELM = 600
   EDIFFG = -0.07
   NSW = 2000
   IBRION = 2
   POTIM = 0.3
   ISIF = 2
   ISYM = 0
   LREAL = Auto
   OPTIM = 0.05
   ISMEAR = 0
   SIGMA = 0.05
   AMIN = 0.01
   BMIX = 0.01
   LVTOT = T
   LWAVE = F
   LDIPOL = T
   IDIPOL = 3
   NCORE = 4
   LVDW = T
   IVDW = 12
   ALGO = VERY_FASE

 POTCAR:    PAW_PBE H 15Jun2001
 POTCAR:    PAW_PBE C 08Apr2002
 POTCAR:    PAW_PBE N 08Apr2002
 POTCAR:    PAW_PBE I 08Apr2002
 POTCAR:    PAW_PBE Pb_d 06Sep2000
 WARNING: For LVTOT=.TRUE., VASP.5.x writes the TOTAL local potential to the
     file LOCPOT. If you want only the Hartree contributions, use LVHAR=.TRUE.
     instead.

   TITEL  = PAW_PBE H 15Jun2001
   POMASS =    1.000; ZVAL   =    1.000    mass and valenz
   ENMAX  =  250.000; ENMIN  =  200.000 eV

   TITEL  = PAW_PBE C 08Apr2002
   POMASS =   12.011; ZVAL   =    4.000    mass and valenz
   ENMAX  =  400.000; ENMIN  =  300.000 eV

[...]

   TITEL  = PAW_PBE I 08Apr2002
   POMASS =  126.904; ZVAL   =    7.000    mass and valenz
   ENMAX  =  175.647; ENMIN  =  131.735 eV

   TITEL  = PAW_PBE Pb_d 06Sep2000
   POMASS =  207.200; ZVAL   =   14.000    mass and valenz
   ENMAX  =  237.835; ENMIN  =  178.376 eV

 Optimization of the real space projectors (new method)

 maximal supplied QI-value         = 34.20
 optimisation between [QCUT,QGAM] = [ 11.29, 22.57] = [ 35.68,142.71] Ry
 Optimized for a Real-space Cutoff    1.16 Angstroem

   l    n(q)    QCUT    max X(q) W(low)/X(q) W(high)/X(q)  e(spline)
   0      8    11.287    19.460    0.40E-03    0.73E-03    0.16E-06
   0      8    11.287    12.209    0.38E-03    0.70E-03    0.15E-06
   1      7    11.287     4.655    0.22E-03    0.25E-04    0.22E-06
 Optimization of the real space projectors (new method)

[...]

   l    n(q)    QCUT    max X(q) W(low)/X(q) W(high)/X(q)  e(spline)
   0      9    11.376   194.483    0.24E-03    0.23E-03    0.67E-07
   0      9    11.376   190.334    0.23E-03    0.22E-03    0.65E-07
   1      8    11.376   116.687    0.25E-03    0.63E-04    0.16E-06
   1      8    11.376    88.696    0.25E-03    0.61E-04    0.16E-06
   2      8    11.376     4.877    0.17E-03    0.14E-03    0.29E-07
 Optimization of the real space projectors (new method)

 maximal supplied QI-value         = 15.12
 optimisation between [QCUT,QGAM] = [ 11.34, 22.83] = [ 36.00,145.93] Ry
 Optimized for a Real-space Cutoff    1.39 Angstroem

   l    n(q)    QCUT    max X(q) W(low)/X(q) W(high)/X(q)  e(spline)
   2      9    11.338     3.846    0.11E-03    0.20E-03    0.77E-07
   2      9    11.338     8.593    0.65E-04    0.17E-03    0.19E-06
   0      9    11.338    20.082    0.80E-04    0.11E-04    0.85E-07
   0      9    11.338     8.597    0.11E-03    0.16E-04    0.12E-06
   1      9    11.338    33.223    0.32E-04    0.22E-03    0.16E-06
   1      9    11.338    15.899    0.28E-04    0.20E-03    0.15E-06
  PAW_PBE H 15Jun2001                   :
  PAW_PBE C 08Apr2002                   :
  PAW_PBE N 08Apr2002                   :
  PAW_PBE I 08Apr2002                   :
  PAW_PBE Pb_d 06Sep2000                :

 POSCAR: H    C    N    I    Pb
  positions in direct lattice
  velocities in cartesian coordinates
 exchange correlation table for  LEXCH =        8
   RHO(1)=    0.500       N(1)  =     2000
   RHO(2)=  100.500       N(2)  =     4000

 ion  position               nearest neighbor table
   1  0.489  0.343  0.564- 187 1.02
   2  0.406  0.780  0.567- 188 1.02
   3  0.930  0.221  0.578- 189 1.03
   4  0.916  0.776  0.570- 190 1.02
   5  0.274  0.095  0.567- 194 1.02
   6  0.315  0.603  0.563- 195 1.02
   7  0.783  0.097  0.564- 196 1.03
   8  0.117  0.230  0.556- 183 1.03
   9  0.102  0.708  0.562- 184 1.02
  10  0.547  0.147  0.563- 185 1.02
  11  0.591  0.701  0.564- 186 1.02
  12  0.358  0.051  0.561- 194 1.03
  13  0.229  0.602  0.551- 195 1.02
  14  0.863  0.047  0.557- 196 1.03
  15  0.055  0.168  0.568- 183 1.02
  16  0.014  0.678  0.570- 184 1.02
  17  0.586  0.236  0.565- 185 1.02
  18  0.499  0.675  0.570- 186 1.02
  19  0.306  0.486  0.577- 148 1.09
  20  0.166  0.006  0.574- 192 1.03
  21  0.673  0.016  0.574- 193 1.02
  22  0.398  0.312  0.561- 187 1.02
  23  0.444  0.867  0.561- 188 1.02
  24  0.917  0.314  0.572- 189 1.02
  25  0.946  0.864  0.561- 190 1.02
  26  0.198  0.419  0.575- 191 1.02
  27  0.186  0.913  0.569- 192 1.02
  28  0.683  0.922  0.568- 193 1.02
  29  0.427  0.190  0.560- 146 1.09
  30  0.562  0.822  0.558- 147 1.09
  31  0.032  0.327  0.556- 144 1.10
  32  0.063  0.825  0.554- 145 1.09
  33  0.152  0.483  0.559- 191 1.03
  34  0.307  0.935  0.560- 149 1.09
  35  0.803  0.934  0.557- 150 1.09
  36  0.407  0.262  0.657- 205 1.02
  37  0.481  0.817  0.675- 206 1.02
  38  0.945  0.325  0.670- 207 1.03
  39  0.997  0.757  0.684- 152 1.09
  40  0.309  0.024  0.677- 209 1.02
  41  0.316  0.505  0.676- 210 1.02
  42  0.787  0.047  0.679- 211 1.02
  43  0.844  0.503  0.659- 212 1.02
  44  0.077  0.174  0.663- 197 1.02
  45  0.064  0.711  0.642- 198 1.02
  46  0.601  0.197  0.660- 199 1.02
  47  0.570  0.668  0.645- 200 1.02
  48  0.164  0.429  0.645- 201 1.02
  49  0.167  0.925  0.647- 202 1.02
  50  0.648  0.451  0.657- 203 1.02
  51  0.674  0.925  0.645- 204 1.02
  52  0.046  0.236  0.682- 197 1.02
  53  0.083  0.680  0.668- 198 1.02
  54  0.512  0.160  0.659- 199 1.02
  55  0.569  0.708  0.670- 200 1.02
  56  0.234  0.402  0.662- 201 1.02
  57  0.202  0.932  0.673- 202 1.02
  58  0.736  0.409  0.659- 203 1.02
  59  0.689  0.947  0.672- 204 1.02
  60  0.442  0.352  0.657- 205 1.02
[...]
 311  0.003  0.505  0.705- 239 3.16 263 3.18 271 3.21 285 3.22 276 3.24 278 3.25
 312  0.508  0.008  0.708- 240 3.13 264 3.14 272 3.18 282 3.20 281 3.27 275 3.30
 313  0.502  0.504  0.706- 241 3.16 265 3.17 283 3.20 273 3.20 280 3.23 274 3.24
 314  0.255  0.255  0.707- 242 3.14 266 3.14 274 3.20 282 3.23 270 3.23 278 3.23
 315  0.258  0.758  0.706- 267 3.13 243 3.17 275 3.18 283 3.20 279 3.23 271 3.29
 316  0.754  0.256  0.708- 244 3.13 268 3.17 280 3.20 276 3.21 284 3.22 272 3.27
 317  0.754  0.754  0.705- 245 3.13 269 3.17 285 3.21 277 3.22 273 3.23 281 3.25
 318  0.999  0.008  0.805- 262 3.03 286 3.14 300 3.15 293 3.33 295 3.34
 319  0.001  0.510  0.803- 263 3.03 287 3.12 301 3.17 294 3.32 292 3.37
 320  0.499  0.004  0.806- 264 3.03 288 3.17 298 3.18 297 3.29 291 3.33
 321  0.501  0.508  0.804- 265 3.02 289 3.14 299 3.16 296 3.31 290 3.37
 322  0.247  0.263  0.806- 266 3.02 294 3.10 290 3.12 298 3.40 286 3.43
 323  0.246  0.762  0.805- 267 3.02 295 3.11 291 3.12 287 3.38 299 3.42
 324  0.749  0.268  0.806- 268 3.02 292 3.08 296 3.09 300 3.42 288 3.51
 325  0.748  0.761  0.804- 269 3.04 293 3.09 297 3.14 301 3.37 289 3.40

IMPORTANT INFORMATION: All symmetrisations will be switched off!
NOSYMM: (Re-)initialisation of all symmetry stuff for point group C_1.

                                     Primitive cell

  volume of cell :   20385.2105

  direct lattice vectors                    reciprocal lattice vectors
    18.060800552  0.000000000  0.000000000     0.055368531  0.000015077 -0.000000000
    -0.004918649 18.062799454  0.000000000     0.000000000  0.055362404  0.000000000
     0.000000000  0.000000000 62.487499237     0.000000000 -0.000000000  0.016003201

  length of vectors
    18.060800552 18.062800123 62.487499237     0.055368533  0.055362404  0.016003201

  position of ions in fractional coordinates (direct lattice)
     0.489105809  0.342999015  0.563528636
     0.405555243  0.779576767  0.567379443
     0.930092495  0.221314767  0.578279512
     0.915710748  0.776401840  0.570275892
     0.273578056  0.095384975  0.567388310
     0.315383166  0.602716505  0.562941310
     0.783274117  0.097491007  0.563853365
     0.116809606  0.230100912  0.556457444
     0.101910168  0.707554593  0.562092337
     0.546569916  0.147477978  0.563017856
     0.591069158  0.700917212  0.564093325
     0.357542720  0.051066710  0.561029693
     0.228905120  0.602283571  0.551090408
     0.863223505  0.046612683  0.557025019
     0.054603238  0.168394991  0.568035333
     0.013521345  0.677974722  0.570458079
     0.586044104  0.235639396  0.564781088
     0.499384190  0.674676948  0.569650057
     0.305735666  0.486244579  0.576991562
     0.166396587  0.006143400  0.574350678
     0.673038915  0.016493037  0.574177648
     0.397635245  0.311951707  0.561205643
     0.444236322  0.866566954  0.561381338
     0.917314952  0.314131513  0.572332671
     0.945822324  0.864254179  0.561477066
     0.197975451  0.418962612  0.574641378
     0.186169494  0.912557117  0.568836308
     0.683213624  0.922085578  0.568025818
     0.427221234  0.189608602  0.560373241
     0.562238419  0.821595835  0.557535882
     0.031634469  0.327497166  0.556097122
     0.063469165  0.825098733  0.554233994
     0.151564567  0.482915235  0.558965702
     0.306899541  0.934896200  0.560089743
     0.802656751  0.933996121  0.556924528
     0.407467235  0.261592650  0.657134079
     0.480548128  0.816686392  0.674552865
     0.945294238  0.325122899  0.669978503
     0.996921360  0.756573238  0.683802175
     0.308747149  0.023873691  0.677051433
     0.316340193  0.504805237  0.676023355
     0.786658406  0.047486937  0.678686556
     0.844150640  0.503160204  0.659134711
     0.077004302  0.174027268  0.663085932
     0.064438445  0.710575449  0.642104258
     0.600875091  0.197313137  0.659690539
     0.569908867  0.668449542  0.644601454
     0.164290321  0.429183210  0.644821525
     0.167210683  0.925251756  0.646723414
     0.647955707  0.450514890  0.657202737
     0.674333388  0.925111765  0.645266719
     0.045570395  0.236451073  0.682176476
     0.082611888  0.679712701  0.668076056
     0.511618108  0.160076603  0.658662613
     0.569376892  0.708348817  0.670089175
     0.233750672  0.402242479  0.662458463
     0.202308056  0.931995640  0.672669491
     0.735626783  0.409026309  0.659033076
     0.688560481  0.947283417  0.672111104
     0.441999589  0.351963129  0.657204251
[...]
     0.002953838  0.504775496  0.704918116
     0.508058669  0.008038061  0.707768784
     0.502260892  0.504197043  0.706103488
     0.255229778  0.254864789  0.707234414
     0.257943382  0.757701153  0.706234528
     0.754002023  0.256001689  0.707568194
     0.753810681  0.753813980  0.704553518
     0.999383698  0.007595746  0.804526245
     0.001337876  0.510138559  0.802963938
     0.499011057  0.003978668  0.805939942
     0.500656941  0.508286561  0.804194234
     0.247162588  0.262866794  0.805654973
     0.246403381  0.761885308  0.804527671
     0.748617108  0.268096983  0.806340452
     0.747527444  0.760516540  0.803579878

  ion indices of the primitive-cell ions
   primitive index   ion index
                 1           1
                 2           2
                 3           3
                 4           4
                 5           5
                 6           6
                 7           7
                 8           8
                 9           9
[...]
   -.287E+02 -.503E+02 0.180E+03   0.334E+02 0.561E+02 -.179E+03   -.464E+01 -.574E+01 -.818E+00   -.637E-03 0.202E-03 -.196E-03
   0.612E+02 0.294E+02 0.171E+03   -.672E+02 -.334E+02 -.168E+03   0.597E+01 0.398E+01 -.212E+01   -.486E-03 -.159E-03 0.441E-04
   0.196E+02 0.563E+02 0.131E+03   -.220E+02 -.620E+02 -.127E+03   0.238E+01 0.576E+01 -.358E+01   0.605E-03 -.583E-05 0.522E-03
   0.465E+02 0.249E+02 0.147E+03   -.517E+02 -.290E+02 -.144E+03   0.521E+01 0.413E+01 -.331E+01   0.655E-03 -.412E-03 0.370E-03
   0.301E+02 -.579E+02 0.177E+03   -.337E+02 0.643E+02 -.175E+03   0.359E+01 -.632E+01 -.163E+01   -.740E-03 0.168E-03 0.458E-03
   -.536E+02 -.397E+02 0.183E+03   0.596E+02 0.436E+02 -.181E+03   -.602E+01 -.392E+01 -.203E+01   -.109E-03 0.666E-03 0.286E-03
   0.203E+02 -.539E+02 0.177E+03   -.233E+02 0.604E+02 -.176E+03   0.299E+01 -.643E+01 -.148E+01   0.561E-03 -.194E-03 -.356E-03
   -.658E+02 -.268E+01 0.225E+03   0.726E+02 0.403E+01 -.227E+03   -.684E+01 -.139E+01 0.190E+01   0.284E-04 0.184E-03 0.757E-03
   -.684E+02 0.174E+02 0.200E+03   0.758E+02 -.187E+02 -.200E+03   -.730E+01 0.127E+01 0.452E+00   -.155E-03 -.189E-03 0.761E-03
   -.118E+02 0.701E+02 0.191E+03   0.128E+02 -.775E+02 -.191E+03   -.972E+00 0.738E+01 -.142E+00   -.383E-03 -.782E-04 -.593E-03
   -.528E+02 0.157E+02 0.182E+03   0.600E+02 -.174E+02 -.182E+03   -.728E+01 0.172E+01 -.340E-01   0.162E-03 -.406E-03 -.296E-03
   -.582E+02 -.109E+02 0.212E+03   0.654E+02 0.113E+02 -.213E+03   -.716E+01 -.435E+00 0.118E+01   -.432E-03 -.166E-03 -.125E-03
   0.448E+02 -.415E+02 0.247E+03   -.502E+02 0.455E+02 -.251E+03   0.539E+01 -.404E+01 0.344E+01   -.389E-03 -.230E-03 0.320E-03
   -.662E+02 -.557E+01 0.218E+03   0.733E+02 0.552E+01 -.219E+03   -.711E+01 0.447E-01 0.147E+01   0.688E-04 -.424E-04 0.998E-04
   -.329E+00 0.670E+02 0.160E+03   -.669E+00 -.736E+02 -.157E+03   0.982E+00 0.662E+01 -.323E+01   0.452E-04 0.500E-03 0.602E-03
   0.236E+02 0.471E+02 0.147E+03   -.278E+02 -.522E+02 -.144E+03   0.417E+01 0.513E+01 -.329E+01   0.512E-03 -.194E-03 0.685E-03
   -.501E+02 -.254E+02 0.176E+03   0.562E+02 0.295E+02 -.175E+03   -.611E+01 -.406E+01 -.938E+00   0.460E-04 0.412E-03 -.489E-03
   0.464E+02 0.469E+02 0.157E+03   -.511E+02 -.521E+02 -.155E+03   0.467E+01 0.514E+01 -.252E+01   -.399E-03 0.661E-04 -.307E-03
   -.398E+02 0.197E+02 0.139E+03   0.445E+02 -.219E+02 -.135E+03   -.459E+01 0.219E+01 -.339E+01   -.701E-03 -.517E-03 0.534E-03
   0.447E+02 -.417E+02 0.156E+03   -.494E+02 0.467E+02 -.153E+03   0.469E+01 -.501E+01 -.262E+01   -.334E-03 -.208E-03 0.665E-03
   0.421E+02 -.429E+02 0.147E+03   -.460E+02 0.481E+02 -.144E+03   0.393E+01 -.527E+01 -.319E+01   0.353E-03 0.326E-03 -.388E-03
   0.705E+02 -.216E+02 0.197E+03   -.778E+02 0.233E+02 -.198E+03   0.726E+01 -.165E+01 0.224E+00   -.138E-03 0.271E-03 0.176E-03
   0.187E+02 -.648E+02 0.205E+03   -.195E+02 0.721E+02 -.205E+03   0.803E+00 -.729E+01 0.597E+00   -.419E-03 -.355E-03 -.300E-03
   0.325E+02 -.462E+02 0.158E+03   -.367E+02 0.524E+02 -.157E+03   0.419E+01 -.617E+01 -.108E+01   0.861E-03 0.389E-03 0.280E-03
   0.148E+02 -.664E+02 0.203E+03   -.160E+02 0.737E+02 -.203E+03   0.123E+01 -.722E+01 0.662E+00   0.398E-03 0.241E-03 0.359E-03
   0.341E+01 0.575E+02 0.141E+03   -.384E+01 -.638E+02 -.137E+03   0.464E+00 0.629E+01 -.403E+01   -.148E-03 0.178E-03 0.738E-03
   0.249E+02 0.581E+02 0.186E+03   -.270E+02 -.653E+02 -.186E+03   0.215E+01 0.716E+01 -.159E+00   -.147E-03 0.168E-03 0.712E-03
   0.328E+02 0.544E+02 0.180E+03   -.354E+02 -.614E+02 -.180E+03   0.265E+01 0.695E+01 -.450E+00   0.395E-03 -.298E-03 -.497E-03
   0.475E+02 0.422E+02 0.202E+03   -.521E+02 -.463E+02 -.203E+03   0.457E+01 0.406E+01 0.404E+00   -.350E-03 0.113E-03 -.147E-03
   -.349E+02 -.448E+02 0.215E+03   0.395E+02 0.487E+02 -.216E+03   -.457E+01 -.387E+01 0.133E+01   -.190E-03 -.925E-04 -.386E-03
   -.279E+02 -.437E+02 0.221E+03   0.296E+02 0.491E+02 -.223E+03   -.161E+01 -.549E+01 0.210E+01   0.545E-03 -.127E-03 0.618E-03
   -.440E+02 -.434E+02 0.229E+03   0.481E+02 0.475E+02 -.231E+03   -.411E+01 -.407E+01 0.201E+01   0.193E-04 0.101E-03 0.556E-03
   0.496E+02 -.122E+02 0.227E+03   -.558E+02 0.142E+02 -.230E+03   0.624E+01 -.194E+01 0.290E+01   -.106E-05 -.124E-03 0.859E-03
   -.322E+02 0.430E+02 0.217E+03   0.358E+02 -.478E+02 -.218E+03   -.357E+01 0.479E+01 0.138E+01   -.493E-03 -.253E-03 0.279E-04
   -.311E+02 0.440E+02 0.219E+03   0.341E+02 -.490E+02 -.221E+03   -.302E+01 0.509E+01 0.153E+01   0.524E-03 0.111E-03 -.180E-03
   0.549E+02 0.371E+02 0.303E+02   -.608E+02 -.415E+02 -.305E+02   0.593E+01 0.445E+01 0.225E+00   -.980E-03 0.532E-03 -.231E-03
   -.132E+02 -.179E+02 -.640E+02   0.154E+02 0.198E+02 0.709E+02   -.214E+01 -.191E+01 -.689E+01   -.923E-03 -.452E-03 -.419E-03
   0.147E+02 -.288E+02 -.497E+02   -.162E+02 0.318E+02 0.562E+02   0.142E+01 -.299E+01 -.654E+01   0.112E-02 0.334E-03 0.451E-03
   0.710E+01 0.210E+01 -.723E+02   -.782E+01 -.231E+01 0.784E+02   0.722E+00 0.193E+00 -.613E+01   0.880E-03 -.151E-03 0.140E-03
   -.160E+02 0.875E+01 -.690E+02   0.176E+02 -.104E+02 0.761E+02   -.161E+01 0.168E+01 -.710E+01   -.169E-02 -.367E-03 0.379E-03
   -.381E+02 0.302E+02 -.418E+02   0.420E+02 -.344E+02 0.463E+02   -.389E+01 0.418E+01 -.455E+01   -.157E-02 -.635E-03 -.247E-03
   0.261E+01 -.533E+01 -.766E+02   -.333E+01 0.565E+01 0.841E+02   0.720E+00 -.327E+00 -.748E+01   0.179E-02 0.168E-03 -.689E-04
   -.531E+02 0.387E+02 0.196E+02   0.588E+02 -.436E+02 -.189E+02   -.563E+01 0.487E+01 -.715E+00   0.111E-02 0.715E-03 0.139E-04
   -.436E+02 0.541E+02 0.339E+02   0.481E+02 -.601E+02 -.355E+02   -.444E+01 0.602E+01 0.161E+01   -.243E-04 0.554E-04 0.774E-03
   -.154E+02 0.934E+01 0.120E+03   0.170E+02 -.981E+01 -.127E+03   -.160E+01 0.477E+00 0.729E+01   0.442E-03 -.165E-03 0.378E-03
   -.622E+02 0.194E+02 0.204E+02   0.695E+02 -.206E+02 -.201E+02   -.733E+01 0.120E+01 -.285E+00   0.402E-03 0.393E-03 0.482E-04
   -.258E+02 0.458E+02 0.847E+02   0.288E+02 -.507E+02 -.894E+02   -.299E+01 0.496E+01 0.473E+01   -.136E-03 -.530E-04 -.354E-03
   0.497E+02 0.215E+02 0.852E+02   -.554E+02 -.235E+02 -.896E+02   0.570E+01 0.204E+01 0.441E+01   -.357E-03 -.150E-03 0.362E-03
   0.443E+02 0.307E+02 0.833E+02   -.492E+02 -.339E+02 -.879E+02   0.486E+01 0.320E+01 0.467E+01   -.450E-03 -.196E-03 0.782E-03
   0.629E+02 0.134E+02 0.298E+02   -.702E+02 -.141E+02 -.300E+02   0.733E+01 0.755E+00 0.168E+00   0.616E-04 0.201E-03 -.486E-03
   0.349E+02 0.378E+02 0.863E+02   -.387E+02 -.417E+02 -.913E+02   0.379E+01 0.394E+01 0.499E+01   0.734E-03 -.239E-03 -.309E-03
   -.405E+01 -.174E+02 -.787E+02   0.429E+01 0.198E+02 0.858E+02   -.246E+00 -.235E+01 -.712E+01   0.429E-03 -.378E-03 -.661E-04
   -.364E+02 0.419E+02 -.225E+02   0.404E+02 -.463E+02 0.270E+02   -.392E+01 0.447E+01 -.450E+01   -.402E-03 0.272E-03 0.246E-03
   0.353E+02 0.542E+02 0.266E+02   -.395E+02 -.602E+02 -.268E+02   0.420E+01 0.602E+01 0.183E+00   -.892E-03 0.237E-03 -.112E-03
   -.269E+02 0.249E+01 -.547E+02   0.299E+02 -.225E+01 0.615E+02   -.295E+01 -.232E+00 -.687E+01   -.300E-04 0.189E-03 -.604E-04
   -.265E+02 0.511E+02 -.964E+01   0.299E+02 -.567E+02 0.132E+02   -.340E+01 0.560E+01 -.358E+01   -.152E-02 -.466E-04 -.392E-03
   0.600E+01 0.231E+02 -.573E+02   -.631E+01 -.254E+02 0.644E+02   0.307E+00 0.233E+01 -.703E+01   -.131E-02 -.248E-03 -.277E-03
   -.319E+02 0.565E+02 0.195E+02   0.359E+02 -.627E+02 -.188E+02   -.398E+01 0.621E+01 -.660E+00   0.174E-02 -.599E-05 -.598E-04
   0.192E+02 0.131E+02 -.596E+02   -.212E+02 -.142E+02 0.667E+02   0.198E+01 0.112E+01 -.705E+01   0.123E-02 0.170E-03 0.373E-03
   0.210E+02 -.637E+02 0.303E+02   -.224E+02 0.711E+02 -.305E+02   0.140E+01 -.737E+01 0.190E+00   -.118E-02 -.511E-03 -.488E-03
[...]
   -.108E+02 0.830E+01 -.794E+03   0.106E+02 -.908E+01 0.795E+03   0.219E+00 0.769E+00 -.701E+00   -.597E-02 0.616E-04 0.269E-02
   0.885E+01 -.307E+01 -.735E+03   -.874E+01 0.289E+01 0.736E+03   -.111E+00 0.162E+00 -.503E+00   -.731E-02 0.159E-02 -.337E-02
   -.203E+02 -.436E+01 -.765E+03   0.203E+02 0.422E+01 0.766E+03   -.364E-01 0.143E+00 -.616E+00   -.224E-01 0.384E-03 -.595E-02
   -.168E+02 0.779E+00 -.731E+03   0.163E+02 -.123E+01 0.731E+03   0.617E+00 0.437E+00 0.766E-02   -.225E-01 0.406E-02 -.630E-02
   -.101E+02 0.554E+00 -.789E+03   0.101E+02 -.913E+00 0.790E+03   0.457E-01 0.363E+00 -.106E+01   0.217E-01 -.510E-02 0.771E-03
   0.236E+01 -.194E+02 -.710E+03   -.261E+01 0.197E+02 0.711E+03   0.224E+00 -.332E+00 -.795E+00   0.218E-01 -.103E-02 -.111E-02
   0.937E+00 0.170E+02 -.304E+04   -.117E+01 -.192E+02 0.305E+04   0.247E+00 0.224E+01 -.566E+01   -.157E-02 0.383E-02 -.110E-01
   0.110E+02 -.552E+01 -.302E+04   -.119E+02 0.364E+01 0.302E+04   0.942E+00 0.187E+01 -.586E+01   0.269E-02 0.383E-02 -.106E-01
   -.157E+00 0.113E+02 -.306E+04   -.245E+00 -.129E+02 0.307E+04   0.400E+00 0.155E+01 -.585E+01   -.662E-03 0.514E-03 0.392E-02
   -.329E+00 0.282E+01 -.304E+04   -.221E+00 -.475E+01 0.305E+04   0.544E+00 0.192E+01 -.603E+01   -.232E-03 0.185E-02 0.306E-02
   -.177E+01 0.233E+02 -.306E+04   0.225E+01 -.267E+02 0.307E+04   -.467E+00 0.338E+01 -.580E+01   -.866E-02 -.753E-03 -.745E-02
   0.611E+00 0.299E+02 -.305E+04   0.956E-01 -.331E+02 0.306E+04   -.668E+00 0.322E+01 -.587E+01   -.123E-01 0.309E-02 -.724E-02
   0.783E+00 0.214E+02 -.307E+04   -.388E+00 -.254E+02 0.308E+04   -.413E+00 0.399E+01 -.599E+01   0.622E-02 -.397E-02 -.193E-02
   -.223E+01 0.411E+02 -.303E+04   0.234E+01 -.445E+02 0.303E+04   -.116E+00 0.343E+01 -.532E+01   0.721E-02 0.329E-02 -.215E-02
   -.780E+01 -.338E+02 0.462E+02   -.381E-12 -.767E-12 0.182E-10   0.777E+01 0.338E+02 -.462E+02   -.284E-01 -.165E-01 -.693E-01

 POSITION                                       TOTAL-FORCE (eV/Angst)
      8.83204      6.19547     35.21345         0.005729      0.001725     -0.002411
      7.32081     14.08137     35.45424         0.003093      0.004558      0.006184
     16.79689      3.99721     36.13551        -0.003172      0.013185     -0.002007
     16.53478     14.02403     35.63506         0.004377     -0.005718     -0.000594
      4.94019      1.72366     35.45500        -0.002093      0.006130      0.011249
      5.69447     10.88739     35.17719         0.009412     -0.005894      0.000355
     14.14609      1.76080     35.23374         0.001803     -0.010358     -0.003077
      2.10841      4.15579     34.77159        -0.021639     -0.036470     -0.000433
      1.83693     12.78031     35.12378         0.005420     -0.006828      0.001667
      9.87074      2.66402     35.18148        -0.000881     -0.000322     -0.006705
     10.67220     12.66046     35.24864        -0.005747      0.003063     -0.009407
      6.45790      0.92270     35.05726         0.012845      0.010292     -0.001067
      4.13071     10.87900     34.43607        -0.056094      0.018969     -0.023221
     15.59011      0.84195     34.80715        -0.002165      0.000292      0.001532
      0.98527      3.04196     35.49437        -0.015497     -0.007140     -0.035964
      0.24069     12.24602     35.64654        -0.002911     -0.000780     -0.001407
     10.58330      4.25638     35.29178        -0.010682     -0.005235     -0.000667
      9.01609     12.18672     35.59598        -0.007498     -0.004536      0.005723
      5.51988      8.78259     36.05469         0.017115     -0.020060     -0.013146
      3.00563      0.11074     35.88947         0.013332     -0.005941     -0.010785
     12.15530      0.29824     35.87904        -0.001837      0.004420     -0.003276
      7.18001      5.63472     35.06832        -0.008454      0.000386     -0.000714
      8.01904     15.65227     35.07937         0.001413     -0.011973      0.002673
     16.56590      5.67409     35.76383        -0.006290      0.022952      0.013653
     17.07785     15.61115     35.08530        -0.009322     -0.013686      0.002672
      3.57403      7.56782     35.90777         0.026387     -0.011279      0.002812
      3.35829     16.48426     35.54515         0.005592      0.004730      0.001923
     12.33475     16.65535     35.49459        -0.000826     -0.001055      0.003277
      7.71496      3.42485     35.01630         0.003127      0.002101     -0.001206
     10.15055     14.84033     34.83897         0.004990     -0.003779     -0.001727
      0.56981      5.91540     34.74952         0.017536     -0.002480      0.019475
      1.14232     14.90348     34.63267        -0.003485     -0.004700     -0.000320
      2.73534      8.72319     34.92814         0.028795      0.018271     -0.009509
      5.53848     16.88682     34.99860         0.007224     -0.001796     -0.002250
     14.49212     16.87061     34.80078         0.005060      0.007153     -0.002031
      7.35817      4.72522     41.06273        -0.002528     -0.004357      0.003312
      8.67500     14.75160     42.15097         0.000275      0.000530      0.002922
     17.07116      5.87274     41.86522         0.001000      0.006314     -0.004614
     18.00144     13.66551     42.72898        -0.005199     -0.015993     -0.005994
      5.57614      0.43115     42.30745        -0.004135     -0.000350     -0.010514
      5.71098      9.11778     42.24316        -0.007969     -0.014651     -0.007287
     14.20738      0.85770     42.40944        -0.001641     -0.001557     -0.004331
     15.24369      9.08852     41.18772         0.008642      0.002890      0.002102
      1.38961      3.14379     41.43466        -0.001617      0.002264      0.002092
      1.16014     12.83517     40.12298        -0.021755      0.013698      0.028160
     10.85137      3.56407     41.22240         0.000799      0.005724     -0.000836
     10.28973     12.07411     40.27958         0.001817      0.001475      0.001279
      2.96548      7.75254     40.29360         0.005444      0.008895      0.006811
      3.01546     16.71267     40.41203         0.000682      0.000687     -0.007844
     11.70027      8.13747     41.06692         0.012536     -0.002267     -0.002375
     12.17425     16.70998     40.32086         0.000696      0.005617     -0.002026
      0.82188      4.27106     42.62703         0.003899      0.013873      0.000242
      1.48840     12.27783     41.74629        -0.000507     -0.001235      0.017868
      9.23919      2.89136     41.15823        -0.000895      0.018534      0.003768
     10.28002     12.79483     41.87227         0.003105      0.005229     -0.002315
      4.21946      7.26584     41.39515        -0.003800     -0.010945      0.000863
      3.64935     16.83458     42.03328         0.003506      0.001997      0.005494
     13.28379      7.38817     41.18139        -0.011329      0.006101      0.003122
     12.43112     17.11043     41.99867        -0.004499     -0.006182     -0.006530
      7.98114      6.35720     41.06694        -0.003727     -0.001088     -0.008220
[...]
      0.05065      9.11757     44.04874        -0.020339     -0.009143      0.015106
      9.17591      0.14518     44.22677        -0.001068     -0.002616      0.013075
      9.06874      9.10701     44.12251        -0.002489     -0.019192     -0.013921
      4.60840      4.60360     44.19334        -0.003130      0.004919      0.003376
      4.65497     13.68613     44.13088         0.001746     -0.008910      0.005619
     13.61653      4.62411     44.21432        -0.006362     -0.000063      0.013694
     13.61068     13.61595     44.02576        -0.003476     -0.007593     -0.005384
     18.04977      0.13695     50.27258         0.010638     -0.021945     -0.020553
      0.02160      9.21438     50.17511        -0.004524     -0.014343     -0.009329
      9.01251      0.07181     50.36097        -0.001214     -0.005424     -0.015484
      9.03971      9.18104     50.25227        -0.006059     -0.003932      0.019021
      4.46271      4.74801     50.34346         0.005404     -0.011546      0.009164
      4.44680     13.76180     50.27285         0.028601      0.001716     -0.003364
     13.51922      4.84253     50.38614        -0.009502     -0.008262     -0.005585
     13.49722     13.73688     50.21369         0.002091     -0.017042     -0.000469
    total drift:                               -0.064123     -0.005577      0.008112

  FREE ENERGIE OF THE ION-ELECTRON SYSTEM (eV)
  free  energy   TOTEN  =     -1577.75868821 eV

  energy  without entropy=    -1577.75868821  energy(sigma->0) =    -1577.75868821

 d Force = 0.3155105E-02[-0.148E-03, 0.646E-02]  d Energy = 0.3176168E-02-0.211E-04
 d Force =-0.3519190E+01[-0.353E+01,-0.351E+01]  d Ewald  =-0.3519189E+01-0.127E-05

 reached required accuracy - stopping structural energy minimisation
 vacuum level on the upper side and lower side of the slab         2.677         1.407